# Solution for model F-JSSP-SDST
# Objective value = 1.8704999979103326e+04
B0(13) 0
B1(21) 0
B2(29) 1
B3(24) 0
B4(23) 0
B5(24) 1
B6(24) 1
B7(35) 0
B8(24) 0
B9(22) 0
B10(15) 1
B11(13) 0
B12(27) 1
B13(27) 0
B14(22) 1
B15(33) 0
B16(27) 0
B17(27) 1
B18(32) 0
B19(15) 1
B20(12) 1
B21(22) 0
B22(27) 1
B23(29) 0
B24(23) 0
B25(24) 0
B26(35) 1
B27(25) 0
B28(24) 0
B29(15) 1
B30(12) 0
B31(22) 1
B32(28) 0
B33(32) 1
B34(25) 0
B35(25) 1
B36(31) 0
B37(24) 1
B38(20) 0
B39(28) 0
B40(12) 1
B41(27) 0
B42(25) 0
B43(33) 1
B44(34) 0
B45(25) 0
B46(21) 1
B47(15) 1
B48(24) 0
B49(24) 0
B50(28) 0
B51(22) 1
B52(22) 0
B53(28) 1
B54(33) 0
B55(34) 1
B56(27) 0
B57(25) 0
B58(19) 0
B59(24) 1
B60(27) 0
B61(23) 1
B62(28) 1
B63(31) 0
B64(32) 1
B65(27) 0
B66(27) 0
B67(15) 0
B68(30) 1
B69(24) 1
B70(28) 0
B71(26) 1
B72(34) 0
B73(34) 0
B74(26) 0
B75(25) 1
B76(24) 1
B77(15) 0
B78(23) 1
B79(27) 0
B80(27) 1
B81(24) 0
B82(34) 1
B83(26) 0
B84(25) 1
B85(15) 0
B86(2) 0
B87(2) 0
B88(2) 0
B89(2) 0
B90(2) 0
B91(2) 0
B92(2) 0
B93(2) 0
B94(2) 0
B95(2) 0
B96(2) 0
B97(2) 0
B98(2) 0
B99(2) 0
B100(2) 0
B101(2) 0
B102(2) 0
B103(2) 0
B104(2) 1
B105(2) 0
B106(2) 0
B107(2) 0
B108(2) 0
B109(2) 0
B110(2) 0
B111(2) 0
B112(2) 0
B113(2) 1
B114(2) 1
B115(2) 1
B116(2) 0
B117(2) 0
B118(2) 0
B119(2) 0
B120(2) 0
B121(2) 1
B122(2) 0
B123(2) 0
B124(2) 1
B125(2) 1
B126(2) 0
B127(2) 0
B128(2) 0
B129(2) 0
B130(2) 1
B131(2) 0
B132(2) 0
B133(2) 1
B134(2) 1
B135(2) 0
B136(2) 0
B137(2) 0
B138(2) 1
B139(2) 0
B140(2) 0
B141(2) 0
B142(2) 0
B143(2) 0
B144(2) 1
B145(2) 0
B146(2) 1
B147(2) 0
B148(2) 0
B149(2) 0
B150(2) 1
B151(2) 0
B152(2) 0
B153(2) 0
B154(2) 0
B155(2) 0
B156(2) 0
B157(2) 0
B158(2) 0
B159(2) 0
B160(2) 0
B161(2) 1
B162(2) 0
B163(2) 0
B164(2) 0
B165(2) 0
B166(2) 0
B167(2) 0
B168(2) 0
B169(2) 0
B170(2) 1
B171(2) 0
B172(2) 1
B173(2) 0
B174(2) 0
B175(2) 0
B176(2) 0
B177(2) 0
B178(2) 0
B179(2) 0
B180(2) 0
B181(2) 0
B182(2) 0
B183(2) 0
B184(2) 1
B185(2) 0
B186(2) 0
B187(2) 0
B188(2) 0
B189(2) 0
B190(2) 0
B191(2) 0
B192(2) 0
B193(2) 0
B194(2) 0
B195(2) 1
B196(2) 0
B197(2) 0
B198(2) 0
B199(2) 1
B200(2) 0
B201(2) 0
B202(2) 0
B203(2) 0
B204(2) 0
B205(2) 0
B206(2) 0
B207(2) 1
B208(2) 0
B209(2) 0
B210(2) 0
B211(2) 0
B212(2) 0
B213(2) 0
B214(2) 1
B215(2) 0
B216(2) 1
B217(2) 0
B218(2) 1
B219(2) 1
B220(2) 0
B221(2) 0
B222(2) 0
B223(2) 0
B224(2) 0
B225(2) 0
B226(2) 1
B227(2) 0
B228(2) 0
B229(2) 0
B230(2) 0
B231(2) 0
B232(2) 0
B233(2) 0
B234(2) 0
B235(2) 0
B236(2) 0
B237(2) 0
B238(2) 1
B239(2) 0
B240(2) 0
B241(2) 0
B242(2) 0
B243(2) 0
B244(2) 0
B245(2) 1
B246(2) 1
B247(2) 1
B248(2) 1
B249(2) 0
B250(2) 0
B251(2) 0
B252(2) 0
B253(2) 0
B254(2) 0
B255(2) 0
B256(2) 0
B257(2) 0
B258(2) 0
B259(2) 0
B260(2) 1
B261(2) 0
B262(2) 0
B263(2) 0
B264(2) 0
B265(2) 0
B266(2) 0
B267(2) 0
B268(2) 0
B269(2) 0
B270(2) 0
B271(2) 0
B272(2) 0
B273(2) 0
B274(2) 0
B275(2) 1
B276(2) 0
B277(2) 0
B278(2) 0
B279(2) 0
B280(2) 0
B281(2) 0
B282(2) 0
B283(2) 0
B284(2) 0
B285(2) 0
B286(2) 0
B287(2) 0
B288(2) 0
B289(2) 0
B290(2) 0
B291(2) 0
B292(2) 0
B293(2) 0
B294(2) 0
B295(2) 1
B296(2) 0
B297(2) 1
B298(2) 0
B299(2) 0
B300(2) 0
B301(2) 0
B302(2) 1
B303(2) 0
B304(2) 0
B305(2) 0
B306(2) 0
B307(2) 1
B308(2) 0
B309(2) 0
B310(2) 0
B311(2) 0
B312(2) 0
B313(2) 0
B314(2) 0
B315(2) 0
B316(2) 0
B317(2) 0
B318(2) 0
B319(2) 0
B320(2) 0
B321(2) 0
B322(2) 0
B323(2) 0
B324(2) 0
B325(2) 0
B326(2) 0
B327(2) 0
B328(2) 0
B329(2) 0
B330(2) 0
B331(2) 0
B332(2) 0
B333(2) 1
B334(2) 0
B335(2) 0
B336(2) 1
B337(2) 0
B338(2) 0
B339(2) 0
B340(2) 0
B341(2) 0
B342(2) 0
B343(2) 0
B344(2) 0
B345(2) 0
B346(2) 0
B347(2) 0
B348(2) 0
B349(2) 0
B350(2) 0
B351(2) 1
B352(2) 0
B353(2) 0
B354(2) 0
B355(2) 0
B356(2) 0
B357(2) 0
B358(2) 0
B359(2) 0
B360(2) 1
B361(2) 0
B362(2) 0
B363(2) 0
B364(2) 0
B365(2) 0
B366(2) 0
B367(2) 0
B368(2) 0
B369(2) 0
B370(2) 0
B371(2) 0
B372(2) 0
B373(2) 1
B374(2) 0
B375(2) 0
B376(2) 0
B377(2) 0
B378(2) 0
B379(2) 0
B380(2) 0
B381(2) 0
B382(2) 0
B383(2) 0
B384(2) 0
B385(2) 1
B386(2) 0
B387(2) 0
B388(2) 0
B389(2) 0
B390(2) 0
B391(2) 0
B392(2) 0
B393(2) 0
B394(2) 0
B395(2) 0
B396(2) 0
B397(2) 1
B398(2) 0
B399(2) 0
B400(2) 0
B401(2) 0
B402(2) 0
B403(2) 0
B404(2) 0
B405(2) 0
B406(2) 0
B407(2) 1
B408(2) 0
B409(2) 0
B410(2) 0
B411(2) 0
B412(2) 0
B413(2) 0
B414(2) 0
B415(2) 0
B416(2) 0
B417(2) 0
B418(2) 0
B419(2) 0
B420(2) 0
B421(2) 0
B422(2) 0
B423(2) 1
B424(2) 0
B425(2) 0
B426(2) 0
B427(2) 0
B428(2) 0
B429(2) 0
B430(2) 0
B431(2) 0
B432(2) 1
B433(2) 0
B434(2) 1
B435(2) 0
B436(2) 0
B437(2) 0
B438(2) 0
B439(2) 0
B440(2) 1
B441(2) 0
B442(2) 0
B443(2) 0
B444(2) 0
B445(2) 0
B446(2) 0
B447(2) 0
B448(2) 0
B449(2) 0
B450(2) 0
B451(2) 0
B452(2) 1
B453(2) 0
B454(2) 0
B455(2) 0
B456(2) 0
B457(2) 1
B458(2) 0
B459(2) 0
B460(2) 0
B461(2) 0
B462(2) 0
B463(2) 0
B464(2) 0
B465(2) 0
B466(2) 0
B467(2) 0
B468(2) 0
B469(2) 0
B470(2) 0
B471(2) 0
B472(2) 0
B473(2) 0
B474(2) 0
B475(2) 0
B476(2) 0
B477(2) 0
B478(2) 0
B479(2) 0
B480(2) 0
B481(2) 0
B482(2) 0
B483(2) 0
B484(2) 0
B485(2) 0
B486(2) 0
B487(2) 0
B488(2) 0
B489(2) 0
B490(2) 0
B491(2) 0
B492(2) 0
B493(2) 0
B494(2) 0
B495(2) 0
B496(2) 0
B497(2) 0
B498(2) 0
B499(2) 0
B500(2) 0
B501(2) 0
B502(2) 0
B503(2) 0
B504(2) 0
B505(2) 0
B506(2) 0
B507(2) 1
B508(2) 0
B509(2) 0
B510(2) 0
B511(2) 0
B512(2) 0
B513(2) 0
B514(2) 0
B515(2) 0
B516(2) 0
B517(2) 0
B518(2) 0
C519(13) 0
C520(21) 0
C521(29) 0
C522(26) 0
C523(24) 0
C524(26) 2.4399999928474426e+02
C525(26) 4.2599999998372959e+02
C526(38) 0
C527(26) 0
C528(23) 0
C529(17) 6.9599999923739324e+02
C530(13) 0
C531(27) 1.1799999932937557e+02
C532(28) 0
C533(24) 2.6799999932937544e+02
C534(34) 0
C535(28) 0
C536(28) 3.8099999923742553e+02
C537(33) 0
C538(17) 5.3099999923740040e+02
C539(12) 0
C540(22) 0
C541(28) 8.6999999999999091e+01
C542(30) 0
C543(24) 0
C544(25) 0
C545(37) 255
C546(27) 0
C547(25) 0
C548(17) 3.5499999999999818e+02
C549(12) 0
C550(22) 0
C551(29) 0
C552(33) 64.9999999999994
C553(26) 0
C554(26) 237.999999999995
C555(33) 0
C556(25) 6.5299999926848216e+02
C557(20) 0
C558(28) 0
C559(12) 1.0499999999999682e+02
C560(28) 0
C561(26) 0
C562(34) 3.7099999932937783e+02
C563(35) 0
C564(27) 0
C565(23) 5.2099999932936771e+02
C566(17) 8.5599999923735777e+02
C567(25) 0
C568(24) 0
C569(28) 0
C570(22) 0
C571(24) 0
C572(30) 2.8099999856948853e+02
C573(36) 0
C574(35) 4.3199999928474426e+02
C575(29) 0
C576(27) 0
C577(21) 0
C578(25) 5.5199999928474426e+02
C579(27) 0
C580(23) 84
C581(29) 4.1999999858593185e+02
C582(33) 0
C583(33) 5.6699999914477348e+02
C584(29) 0
C585(29) 0
C586(17) 0
C587(31) 798.999998585894
C588(24) 1.6899999926852132e+02
C589(28) 0
C590(27) 4.1399999926852115e+02
C591(35) 0
C592(36) 0
C593(28) 0
C594(28) 637.999999268517
C595(25) 8.3499999926847954e+02
C596(17) 0
C597(23) 3.5099999932937112e+02
C598(27) 0
C599(28) 564.999998585929
C600(26) 0
C601(35) 7.4499999858592764e+02
C602(27) 0
C603(26) 8.3799999926846976e+02
C604(16) 0
C605(1) 1.8704999979103326e+04
